131
100000
35313
17385
39531
1327
4035
14663
22436
45152
19610
29959
18423
23856
11367
7891
8492
36973
32769
35487
10979
15418
18385
637
32003
42386
12786
23464
16375
31115
6926
11551
39246
30079
29491
49513
47130
30045
8627
9285
12365
3556
37393
16590
28021
12807
9825
8244
34272
37866
6929
4570
14188
42771
31005
10495
10159
20977
38528
7049
22335
4071
37373
13997
28805
2871
35786
36208
2700
42341
45036
19375
48116
37130
25440
44580
41477
45439
35979
8524
18002
15889
45075
41934
31892
21126
15920
38348
5525
14490
49857
4386
26773
49126
11790
2988
36367
45076
19289
11947
12603
17475
1664
24189
4508
4303
14732
19561
395
7360
35363
45411
22740
43791
47417
8064
32789
14281
18472
25690
45728
25738
8
12829
24400
9876
29749
20873
12474
893
20769
15914
38838
